projected/problems_b25_r0_d7_m100_s666/_DIMACS/b25_d7_r0_s666_092.cnf
p cnf 226 362 25
c p show 1 2 3 4 5 6 7 8 9 10 11 12 13 14 15 16 17 18 19 20 21 22 23 24 25
-125 2 25 0
-126 20 15 0
-127 126 125 0
-129 18 -15 0
-130 15 -18 0
-131 130 0
-131 129 0
-132 21 0
-133 132 131 0
-135 133 0
-135 127 0
-136 -7 -14 0
-137 -16 0
-137 -6 0
-138 137 0
-138 136 0
-139 -25 0
-139 2 0
-141 -19 0
-141 8 0
-142 141 139 0
-143 142 0
-143 138 0
-144 143 0
-144 135 0
-145 24 11 0
-147 11 0
-147 14 0
-148 147 0
-148 145 0
-149 -25 0
-149 17 0
-150 20 0
-150 19 0
-151 150 0
-151 149 0
-153 151 148 0
-154 -4 7 0
-155 16 3 0
-156 155 154 0
-157 -25 -22 0
-158 -17 0
-158 1 0
-159 158 0
-159 157 0
-160 159 0
-160 156 0
-161 25 0
-161 22 0
-162 17 -1 0
-163 162 161 0
-164 4 0
-164 -7 0
-165 -16 0
-165 -3 0
-166 165 0
-166 164 0
-167 166 0
-167 163 0
-168 167 160 0
-169 168 0
-169 153 0
-170 169 144 0
-171 -18 -7 0
-172 23 0
-172 -3 0
-173 172 171 0
-174 -23 3 0
-175 18 0
-175 7 0
-176 175 174 0
-177 176 0
-177 173 0
-178 23 -5 0
-179 8 19 0
-180 179 178 0
-181 180 177 0
-182 -16 0
-182 -10 0
-183 -14 0
-183 3 0
-184 -3 0
-184 14 0
-185 184 183 0
-186 185 182 0
-187 23 21 0
-188 -1 24 0
-189 188 187 0
-190 189 186 0
-191 190 181 0
-192 -25 18 0
-193 -7 -12 0
-194 193 0
-194 192 0
-195 -2 -7 0
-196 -7 -20 0
-197 196 0
-197 195 0
-198 197 0
-198 194 0
-199 16 13 0
-200 -13 -16 0
-201 200 0
-201 199 0
-202 -8 11 0
-203 202 0
-203 201 0
-204 -14 0
-204 -13 0
-205 23 7 0
-206 205 0
-206 204 0
-207 206 0
-207 203 0
-208 207 198 0
-209 208 191 0
-210 209 0
-210 170 0
-211 12 0
-211 -25 0
-212 1 5 0
-213 212 0
-213 211 0
-214 20 -4 0
-215 7 0
-215 -11 0
-216 215 214 0
-217 -7 11 0
-218 -20 0
-218 4 0
-219 218 217 0
-220 219 0
-220 216 0
-221 220 213 0
-222 -3 8 0
-223 17 -13 0
-224 223 222 0
-225 -12 -13 0
-226 13 12 0
-26 226 0
-26 225 0
-27 7 2 0
-28 27 0
-28 26 0
-123 -7 0
-123 -2 0
-124 12 0
-124 13 0
-128 -13 0
-128 -12 0
-134 128 124 0
-140 134 0
-140 123 0
-146 140 28 0
-152 146 224 0
-29 152 221 0
-30 -14 -3 0
-31 30 0
-31 124 0
-32 11 21 0
-33 -22 -6 0
-34 33 0
-34 32 0
-35 34 0
-35 31 0
-36 23 8 0
-37 -1 -8 0
-38 37 0
-38 36 0
-39 14 -17 0
-40 17 -14 0
-41 40 0
-41 39 0
-42 -10 21 0
-43 42 0
-43 41 0
-44 43 38 0
-45 44 35 0
-46 45 29 0
-47 -18 2 0
-48 -25 0
-48 10 0
-49 48 47 0
-50 -4 -21 0
-51 21 4 0
-52 51 0
-52 50 0
-53 -14 21 0
-54 53 52 0
-55 54 0
-55 49 0
-56 -14 -25 0
-57 1 -4 0
-58 57 56 0
-59 -1 -23 0
-60 16 0
-60 -14 0
-61 14 0
-61 -16 0
-62 61 60 0
-63 62 0
-63 59 0
-64 63 58 0
-65 1 0
-65 23 0
-66 -16 14 0
-67 -14 16 0
-68 67 0
-68 66 0
-69 68 65 0
-70 14 0
-70 25 0
-71 -1 0
-71 4 0
-72 71 0
-72 70 0
-73 72 69 0
-74 73 0
-74 64 0
-75 74 55 0
-76 6 0
-76 -9 0
-77 -4 -11 0
-78 77 76 0
-79 -15 16 0
-80 -11 -10 0
-81 80 0
-81 79 0
-82 81 78 0
-83 -23 10 0
-84 17 20 0
-85 84 83 0
-86 -1 0
-86 -25 0
-87 18 0
-87 8 0
-88 87 86 0
-89 88 0
-89 85 0
-90 89 0
-90 82 0
-91 90 0
-91 75 0
-92 -6 9 0
-93 4 0
-93 11 0
-94 93 0
-94 92 0
-95 15 0
-95 -16 0
-96 11 0
-96 10 0
-97 96 95 0
-98 97 0
-98 94 0
-99 23 0
-99 -10 0
-100 -17 0
-100 -20 0
-101 100 0
-101 99 0
-102 1 25 0
-103 -18 -8 0
-104 103 0
-104 102 0
-105 104 101 0
-106 105 98 0
-107 18 0
-107 -2 0
-108 25 -10 0
-109 108 0
-109 107 0
-110 4 0
-110 21 0
-111 -21 0
-111 -4 0
-112 111 110 0
-113 14 0
-113 -21 0
-114 113 0
-114 112 0
-115 114 109 0
-116 69 0
-116 72 0
-117 58 0
-117 63 0
-118 117 116 0
-119 118 0
-119 115 0
-120 119 0
-120 106 0
-121 120 91 0
-122 121 0
-122 46 0
122 210 0
-161 -157 0
-162 -158 0
-163 -159 0
-159 -163 0
-154 -164 0
-165 -155 0
-155 -165 0
-156 -166 0
-166 -156 0
-174 -172 0
-175 -171 0
-171 -175 0
-215 -217 0
-217 -215 0
-218 -214 0
-214 -218 0
-123 -27 0
-27 -123 0
-26 -134 0
-134 -26 0
-76 -92 0
-93 -77 0
-77 -93 0
-78 -94 0
-94 -78 0
-95 -79 0
-80 -96 0
-96 -80 0
-97 -81 0
-98 -82 0
-82 -98 0
-83 -99 0
-84 -100 0
-85 -101 0
-101 -85 0
-102 -86 0
-86 -102 0
-87 -103 0
-88 -104 0
-104 -88 0
-105 -89 0
-89 -105 0
-90 -106 0
-47 -107 0
-107 -47 0
-48 -108 0
-108 -48 0
-109 -49 0
-52 -112 0
-113 -53 0
-53 -113 0
-54 -114 0
-114 -54 0
-115 -55 0
-55 -115 0
-59 -65 0
-68 -62 0
-62 -68 0
-63 -69 0
-69 -63 0
-70 -56 0
-71 -57 0
-72 -58 0
-58 -72 0
-74 -118 0
-75 -119 0
-119 -75 0
