projected/problems_b25_r0_d7_m100_s666/b25_d7_r0_s666_092.smt2
(set-logic QF_UF)
(declare-fun A0 () Bool)
(declare-fun A1 () Bool)
(declare-fun A2 () Bool)
(declare-fun A3 () Bool)
(declare-fun A4 () Bool)
(declare-fun A5 () Bool)
(declare-fun A6 () Bool)
(declare-fun A7 () Bool)
(declare-fun A8 () Bool)
(declare-fun A9 () Bool)
(declare-fun A10 () Bool)
(declare-fun A11 () Bool)
(declare-fun A12 () Bool)
(declare-fun A13 () Bool)
(declare-fun A14 () Bool)
(declare-fun A15 () Bool)
(declare-fun A16 () Bool)
(declare-fun A17 () Bool)
(declare-fun A18 () Bool)
(declare-fun A19 () Bool)
(declare-fun A20 () Bool)
(declare-fun A21 () Bool)
(declare-fun A22 () Bool)
(declare-fun A23 () Bool)
(declare-fun A24 () Bool)
(assert (let ((.def_0 (not A24))) (let ((.def_1 (not A1))) (let ((.def_2 (and .def_1 .def_0))) (let ((.def_3 (not .def_2))) (let ((.def_4 (or A19 A14))) (let ((.def_5 (or .def_4 .def_3))) (let ((.def_6 (not .def_5))) (let ((.def_7 (not A17))) (let ((.def_8 (not A14))) (let ((.def_9 (= .def_8 .def_7))) (let ((.def_10 (not A20))) (let ((.def_11 (and .def_10 .def_10))) (let ((.def_12 (not .def_11))) (let ((.def_13 (or .def_12 .def_9))) (let ((.def_14 (not .def_13))) (let ((.def_15 (or .def_14 .def_6))) (let ((.def_16 (not A13))) (let ((.def_17 (not A6))) (let ((.def_18 (or .def_17 .def_16))) (let ((.def_19 (not .def_18))) (let ((.def_20 (or A15 A5))) (let ((.def_21 (or .def_20 .def_19))) (let ((.def_22 (or A24 .def_1))) (let ((.def_23 (not A18))) (let ((.def_24 (and .def_23 A7))) (let ((.def_25 (not .def_24))) (let ((.def_26 (and .def_25 .def_22))) (let ((.def_27 (or .def_26 .def_21))) (let ((.def_28 (or .def_27 .def_15))) (let ((.def_29 (not .def_28))) (let ((.def_30 (or A23 A10))) (let ((.def_31 (and A10 A13))) (let ((.def_32 (and .def_31 .def_30))) (let ((.def_33 (not .def_32))) (let ((.def_34 (not A16))) (let ((.def_35 (or A24 .def_34))) (let ((.def_36 (not .def_35))) (let ((.def_37 (not A19))) (let ((.def_38 (or .def_37 .def_23))) (let ((.def_39 (not .def_38))) (let ((.def_40 (and .def_39 .def_36))) (let ((.def_41 (not .def_40))) (let ((.def_42 (and .def_41 .def_33))) (let ((.def_43 (and A24 A21))) (let ((.def_44 (not A0))) (let ((.def_45 (or A16 .def_44))) (let ((.def_46 (or .def_45 .def_43))) (let ((.def_47 (not .def_46))) (let ((.def_48 (not A3))) (let ((.def_49 (or .def_48 A6))) (let ((.def_50 (not A2))) (let ((.def_51 (not A15))) (let ((.def_52 (and .def_51 .def_50))) (let ((.def_53 (not .def_52))) (let ((.def_54 (or .def_53 .def_49))) (let ((.def_55 (not .def_54))) (let ((.def_56 (= .def_55 .def_47))) (let ((.def_57 (or .def_56 .def_42))) (let ((.def_58 (not .def_57))) (let ((.def_59 (or .def_58 .def_29))) (let ((.def_60 (not A22))) (let ((.def_61 (or .def_60 A2))) (let ((.def_62 (and A17 A6))) (let ((.def_63 (not .def_62))) (let ((.def_64 (= .def_63 .def_61))) (let ((.def_65 (not A4))) (let ((.def_66 (or A22 .def_65))) (let ((.def_67 (or A7 A18))) (let ((.def_68 (or .def_67 .def_66))) (let ((.def_69 (or .def_68 .def_64))) (let ((.def_70 (not .def_69))) (let ((.def_71 (or A15 A9))) (let ((.def_72 (= .def_50 .def_16))) (let ((.def_73 (and .def_72 .def_71))) (let ((.def_74 (and .def_60 .def_10))) (let ((.def_75 (not A23))) (let ((.def_76 (and A0 .def_75))) (let ((.def_77 (and .def_76 .def_74))) (let ((.def_78 (and .def_77 .def_73))) (let ((.def_79 (and .def_78 .def_70))) (let ((.def_80 (not .def_79))) (let ((.def_81 (and A24 .def_7))) (let ((.def_82 (not .def_81))) (let ((.def_83 (and A6 A11))) (let ((.def_84 (not .def_83))) (let ((.def_85 (and .def_84 .def_82))) (let ((.def_86 (or .def_1 .def_17))) (let ((.def_87 (not .def_86))) (let ((.def_88 (and A6 A19))) (let ((.def_89 (or .def_88 .def_87))) (let ((.def_90 (not .def_89))) (let ((.def_91 (and .def_90 .def_85))) (let ((.def_92 (= A12 .def_51))) (let ((.def_93 (not A10))) (let ((.def_94 (and A7 .def_93))) (let ((.def_95 (not .def_94))) (let ((.def_96 (and .def_95 .def_92))) (let ((.def_97 (not .def_96))) (let ((.def_98 (or A13 A12))) (let ((.def_99 (not .def_98))) (let ((.def_100 (or A22 A6))) (let ((.def_101 (and .def_100 .def_99))) (let ((.def_102 (not .def_101))) (let ((.def_103 (or .def_102 .def_97))) (let ((.def_104 (not .def_103))) (let ((.def_105 (or .def_104 .def_91))) (let ((.def_106 (or .def_105 .def_80))) (let ((.def_107 (and .def_106 .def_59))) (let ((.def_108 (not .def_107))) (let ((.def_109 (and A11 .def_0))) (let ((.def_110 (and .def_44 .def_65))) (let ((.def_111 (not .def_110))) (let ((.def_112 (and .def_111 .def_109))) (let ((.def_113 (not .def_112))) (let ((.def_114 (and A6 .def_93))) (let ((.def_115 (not .def_114))) (let ((.def_116 (and .def_37 A3))) (let ((.def_117 (not .def_116))) (let ((.def_118 (= .def_117 .def_115))) (let ((.def_119 (not .def_118))) (let ((.def_120 (and .def_119 .def_113))) (let ((.def_121 (not A7))) (let ((.def_122 (and A2 .def_121))) (let ((.def_123 (not .def_122))) (let ((.def_124 (and .def_34 A12))) (let ((.def_125 (not .def_124))) (let ((.def_126 (or .def_125 .def_123))) (let ((.def_127 (not .def_126))) (let ((.def_128 (and .def_17 .def_1))) (let ((.def_129 (not .def_128))) (let ((.def_130 (not A12))) (let ((.def_131 (= .def_130 A11))) (let ((.def_132 (not .def_131))) (let ((.def_133 (= .def_132 .def_129))) (let ((.def_134 (and .def_133 .def_127))) (let ((.def_135 (and .def_134 .def_120))) (let ((.def_136 (not .def_135))) (let ((.def_137 (not A11))) (let ((.def_138 (or .def_137 .def_130))) (let ((.def_139 (not .def_138))) (let ((.def_140 (and A13 A2))) (let ((.def_141 (not .def_140))) (let ((.def_142 (and .def_141 .def_139))) (let ((.def_143 (not .def_142))) (let ((.def_144 (and .def_93 .def_10))) (let ((.def_145 (and A21 A5))) (let ((.def_146 (or .def_145 .def_144))) (let ((.def_147 (or .def_146 .def_143))) (let ((.def_148 (not .def_147))) (let ((.def_149 (and .def_60 .def_121))) (let ((.def_150 (not .def_149))) (let ((.def_151 (and A0 A7))) (let ((.def_152 (not .def_151))) (let ((.def_153 (and .def_152 .def_150))) (let ((.def_154 (= .def_34 .def_16))) (let ((.def_155 (not A9))) (let ((.def_156 (or .def_155 A20))) (let ((.def_157 (and .def_156 .def_154))) (let ((.def_158 (or .def_157 .def_153))) (let ((.def_159 (or .def_158 .def_148))) (let ((.def_160 (or .def_159 .def_136))) (let ((.def_161 (not A8))) (let ((.def_162 (and A5 .def_161))) (let ((.def_163 (and A3 A10))) (let ((.def_164 (not .def_163))) (let ((.def_165 (or .def_164 .def_162))) (let ((.def_166 (not .def_165))) (let ((.def_167 (and A14 .def_51))) (let ((.def_168 (or .def_93 .def_155))) (let ((.def_169 (not .def_168))) (let ((.def_170 (or .def_169 .def_167))) (let ((.def_171 (and .def_170 .def_166))) (let ((.def_172 (not .def_171))) (let ((.def_173 (or .def_60 A9))) (let ((.def_174 (or A16 A19))) (let ((.def_175 (or .def_174 .def_173))) (let ((.def_176 (not .def_175))) (let ((.def_177 (or A0 A24))) (let ((.def_178 (not .def_177))) (let ((.def_179 (and A17 A7))) (let ((.def_180 (or .def_179 .def_178))) (let ((.def_181 (not .def_180))) (let ((.def_182 (or .def_181 .def_176))) (let ((.def_183 (not .def_182))) (let ((.def_184 (and .def_183 .def_172))) (let ((.def_185 (or .def_7 A1))) (let ((.def_186 (not .def_185))) (let ((.def_187 (and .def_0 A9))) (let ((.def_188 (not .def_187))) (let ((.def_189 (and .def_188 .def_186))) (let ((.def_190 (= .def_10 A3))) (let ((.def_191 (and A13 .def_10))) (let ((.def_192 (not .def_191))) (let ((.def_193 (or .def_192 .def_190))) (let ((.def_194 (not .def_193))) (let ((.def_195 (or .def_194 .def_189))) (let ((.def_196 (not .def_195))) (let ((.def_197 (or .def_44 .def_60))) (let ((.def_198 (= A13 A15))) (let ((.def_199 (not .def_198))) (let ((.def_200 (and .def_199 .def_197))) (let ((.def_201 (not .def_200))) (let ((.def_202 (and A13 A24))) (let ((.def_203 (and .def_44 A3))) (let ((.def_204 (and .def_203 .def_202))) (let ((.def_205 (not .def_204))) (let ((.def_206 (= .def_205 .def_201))) (let ((.def_207 (or .def_206 .def_196))) (let ((.def_208 (not .def_207))) (let ((.def_209 (= .def_208 .def_184))) (let ((.def_210 (not .def_209))) (let ((.def_211 (and .def_210 .def_160))) (let ((.def_212 (not .def_211))) (let ((.def_213 (and .def_212 .def_108))) (let ((.def_214 (not .def_213))) .def_214))))))))))))))))))))))))))))))))))))))))))))))))))))))))))))))))))))))))))))))))))))))))))))))))))))))))))))))))))))))))))))))))))))))))))))))))))))))))))))))))))))))))))))))))))))))))))))))))))))))))))))))))))))))))
(check-sat)
